c turning on binary mode checking
c parsing input formula with 202048 variables and 780975 clauses
c finished parsing, read 16979503 bytes from proof file
c detected empty clause; start verification via backward checking
c 11668 of 780975 clauses in core                            
c 15821 of 460037 lemmas in core using 131093 resolution steps
c 0 RAT lemmas in core; 1131 redundant literals in core lemmas
s VERIFIED
c verification time: 2.445 seconds
